NAME : XML100_1262_05
DIMENSION : 101
NB_CLUSTERS : 5
CLUSTERING_ALG : KMeans
CLUSTERING_PARAMS : k(4)
CLUSTERS
1 0
2 2 7 9 35 40 45 62 73 76 78 81 84
3 1 4 8 11 12 14 15 16 17 19 20 23 25 28 29 30 32 36 39 46 47 48 49 51 54 55 56 57 59 60 63 64 65 66 68 69 70 71 74 75 80 85 86 87 88 89 90 91 93 94 95 97 98 99 100
4 3 5 6 13 18 21 31 33 34 38 41 42 43 52 53 72 77 79 92 96
5 10 22 24 26 27 37 44 50 58 61 67 82 83
EOF